StringID   Type       x          y          demand     ReadyTime  DueDate    ServiceTime
D0         d              31.289    18.248      0.000      0.000     23.983      0.000
S0         f              31.289    18.248      0.000      0.000     23.983      0.000
S1         f              40.830     1.150      0.000      0.000     23.983      0.000
S2         f              67.120    96.010      0.000      0.000     23.983      0.000
C0         c              79.770    99.125      0.047     14.808     16.799      0.150
C1         c              -1.372    33.401      0.014      8.051     11.674      0.083
C2         c              43.618    15.499      0.012     14.028     17.768      0.050
C3         c              52.803    57.735      0.086     14.586     18.182      0.017
C4         c              92.645    61.654      0.036     10.231     12.837      0.083

Q Vehicle fuel tank capacity /109.4800/
C Vehicle load capacity /1.0100/
r fuel consumption rate /0.4400/
g inverse refueling rate /0.0074/
v average Velocity /35.8500/
gv charging speed /134.4800/

--------------------
instance_id /176/
number of clusters /6/
working_startTime (hour) /8.00/
working_endTime (hour) /21.67/
instance_endTime (hour) /23.98/
service_time_type /random/
demand_type /random/
instance_type /RC/
instance x range /[0.0, 100.0]/
instance y range /[0.0, 100.0]/
cs_time_to_depot (hour)/[0.5461616434589117,2.388285301534954]/
